NAME: tsp30-50
TYPE: TSP
DIMENSION: 30
EDGE_WEIGHT_TYPE: EUC_2D
NODE_COORD_SECTION
0 66 95
1 81 68
2 4 2
3 4 12
4 73 33
5 84 44
6 36 8
7 3 87
8 39 39
9 38 31
10 41 39
11 30 63
12 71 67
13 67 45
14 88 45
15 65 94
16 70 74
17 74 86
18 54 85
19 86 62
20 54 35
21 8 85
22 77 18
23 84 47
24 10 38
25 53 55
26 71 53
27 43 78
28 98 96
29 86 54
EOF